$molecule
0   1
 Fe 55.34153874 -3.20551769 21.35131081
C 52.40158086 -4.90269089 20.81874580
C 58.37059345 -1.90957380 21.89459237
C 56.80683147 -4.89972966 18.78524270
C 53.73759702 -0.23300256 20.58326897
C 55.19905704 -4.16825430 24.69811749
O 50.58122004 -6.02043026 20.32863610
O 60.41555369 -1.07384833 22.43552215
O 57.60866830 -6.10875097 17.13308170
O 52.50564245 1.56420202 20.12763388
O 55.26602642 -4.92260126 26.75087722

$end

$rem
     JOBTYPE  force
     METHOD   bp86
     BASIS    def2-msvp
     MAX_SCF_CYCLES   800
     INPUT_BOHR TRUE
     SYM_IGNORE TRUE
$end

@@@

$molecule
READ
$end

$rem
     JOBTYPE  freq
     METHOD   bp86
     BASIS    def2-msvp
     MAX_SCF_CYCLES   800
     INPUT_BOHR TRUE
     SYM_IGNORE TRUE
     SCF_GUESS     read 
$end
