$molecule
0   1
 Fe 0.63902320 -4.98908448 -3.85531162
C -1.03665048 -2.45453479 -5.21582162
C 2.52583979 -7.61922213 -2.74887873
C -0.77134825 -4.76304056 -0.77440479
C -0.59504612 -6.93588442 -6.47992561
C 3.25680535 -2.87603094 -3.54501694
O -2.26262459 -0.83937536 -6.06758648
O 3.95835814 -9.14817996 -2.04051728
O -1.23749454 -4.52478034 1.35789505
O -1.52184565 -8.38129670 -7.78086442
O 4.98973494 -1.56482870 -3.12852206

$end

$rem
     JOBTYPE  force
     METHOD   bp86
     BASIS    def2-msvp
     MAX_SCF_CYCLES   800
     INPUT_BOHR TRUE
     SYM_IGNORE TRUE
$end

@@@

$molecule
READ
$end

$rem
     JOBTYPE  freq
     METHOD   bp86
     BASIS    def2-msvp
     MAX_SCF_CYCLES   800
     INPUT_BOHR TRUE
     SYM_IGNORE TRUE
     SCF_GUESS     read 
$end
