$molecule
0   1
 Fe 94.32257322 1.39773782 -0.83386628
C 93.13160220 4.34886916 0.29842080
C 95.27488364 -1.66189228 -2.20659948
C 91.36394387 -0.13572808 0.71371547
C 94.54929205 2.77095482 -3.86153202
C 97.03638401 1.90810364 1.07839662
O 92.37024352 6.40460128 0.86914538
O 95.85940214 -3.52657826 -3.07633833
O 89.38137019 -0.51890434 1.54573989
O 94.88296215 3.44898699 -5.96833188
O 98.82034823 2.78567038 2.10279431

$end

$rem
     JOBTYPE  force
     METHOD   bp86
     BASIS    def2-msvp
     MAX_SCF_CYCLES   800
     INPUT_BOHR TRUE
     SYM_IGNORE TRUE
$end

@@@

$molecule
READ
$end

$rem
     JOBTYPE  freq
     METHOD   bp86
     BASIS    def2-msvp
     MAX_SCF_CYCLES   800
     INPUT_BOHR TRUE
     SYM_IGNORE TRUE
     SCF_GUESS     read 
$end
