$molecule
0   1
 Fe -56.65297185 -4.60293756 0.48237796
C -54.49178023 -7.46414560 0.54083038
C -58.75643203 -1.90895773 0.42776473
C -58.98029240 -6.53782406 2.19028205
C -54.29175991 -2.77681871 2.30270335
C -57.32892073 -5.09008518 -2.85078282
O -53.06313113 -9.09245932 0.40595082
O -60.22221223 -0.35014949 0.96915913
O -60.75931523 -7.35860866 3.15389125
O -52.87037233 -1.61464961 3.49737804
O -57.66977502 -5.25842051 -5.02381096

$end

$rem
     JOBTYPE  force
     METHOD   bp86
     BASIS    def2-msvp
     MAX_SCF_CYCLES   800
     INPUT_BOHR TRUE
     SYM_IGNORE TRUE
$end

@@@

$molecule
READ
$end

$rem
     JOBTYPE  freq
     METHOD   bp86
     BASIS    def2-msvp
     MAX_SCF_CYCLES   800
     INPUT_BOHR TRUE
     SYM_IGNORE TRUE
     SCF_GUESS     read 
$end
