$molecule
0   1
 Fe 115.77441030 -6.13360054 1.56331843
C 112.76921189 -5.03553793 2.97431471
C 118.51756222 -7.83225019 0.50455076
C 113.97435431 -8.41130388 -0.22719886
C 116.04523778 -3.33587284 -0.51279878
C 117.33068548 -5.91798147 4.69264895
O 110.98332412 -4.07216069 3.90769055
O 120.19821935 -9.01354023 -0.28842820
O 112.49586716 -9.68752177 -1.46547409
O 116.07625979 -1.93664612 -2.14819540
O 118.23676327 -5.74864015 6.67328740

$end

$rem
     JOBTYPE  force
     METHOD   bp86
     BASIS    def2-msvp
     MAX_SCF_CYCLES   800
     INPUT_BOHR TRUE
     SYM_IGNORE TRUE
$end

@@@

$molecule
READ
$end

$rem
     JOBTYPE  freq
     METHOD   bp86
     BASIS    def2-msvp
     MAX_SCF_CYCLES   800
     INPUT_BOHR TRUE
     SYM_IGNORE TRUE
     SCF_GUESS     read 
$end
