$molecule
0   1
 Fe -7.75895127 14.49805797 6.02871844
C -6.46671258 17.34062113 4.58417075
C -9.27349531 11.59407841 7.12013336
C -6.79635654 13.15055654 3.23470311
C -5.71172790 14.95541241 8.58347245
C -10.81372030 15.92812416 5.98958312
O -5.61524899 18.97258216 3.21054263
O -10.28188117 9.82324852 7.75902984
O -6.34884811 12.30879327 1.25568991
O -4.14147133 15.59642196 10.09169480
O -12.75835862 17.01666922 5.72354844

$end

$rem
     JOBTYPE  force
     METHOD   bp86
     BASIS    def2-msvp
     MAX_SCF_CYCLES   800
     INPUT_BOHR TRUE
     SYM_IGNORE TRUE
$end

@@@

$molecule
READ
$end

$rem
     JOBTYPE  freq
     METHOD   bp86
     BASIS    def2-msvp
     MAX_SCF_CYCLES   800
     INPUT_BOHR TRUE
     SYM_IGNORE TRUE
     SCF_GUESS     read 
$end
