$molecule
0   1
 Fe 60.59214252 0.12234553 -4.71631484
C 63.40169969 1.26488120 -3.01779849
C 58.10025764 -0.66920144 -6.80786310
C 61.52810779 -3.12544025 -4.35808085
C 58.52957382 1.53555895 -2.47704341
C 61.70861241 2.36085082 -7.13986423
O 65.17838572 2.23761104 -2.23907898
O 56.57447745 -1.28564172 -8.25948525
O 61.87642804 -5.29673181 -4.18691814
O 56.79112738 2.46489135 -1.39228362
O 62.81355673 3.63895678 -8.46214000

$end

$rem
     JOBTYPE  force
     METHOD   bp86
     BASIS    def2-msvp
     MAX_SCF_CYCLES   800
     INPUT_BOHR TRUE
     SYM_IGNORE TRUE
$end

@@@

$molecule
READ
$end

$rem
     JOBTYPE  freq
     METHOD   bp86
     BASIS    def2-msvp
     MAX_SCF_CYCLES   800
     INPUT_BOHR TRUE
     SYM_IGNORE TRUE
     SCF_GUESS     read 
$end
