$molecule
0   1
 Fe -8.72307601 13.39328611 5.38790054
C -7.70734642 16.62986539 4.54484556
C -9.84399387 10.08570775 5.98739620
C -6.64604233 12.41028490 2.84265493
C -7.83506745 13.68796956 8.77618888
C -11.68932869 14.47044061 4.24396280
O -7.18552173 18.70016650 3.84516437
O -10.72613888 8.12681046 6.41466632
O -5.52015968 12.08662968 0.89726091
O -7.33719232 14.17549562 10.85982380
O -13.64682583 15.45320579 3.58277534

$end

$rem
     JOBTYPE  force
     METHOD   bp86
     BASIS    def2-msvp
     MAX_SCF_CYCLES   800
     INPUT_BOHR TRUE
     SYM_IGNORE TRUE
$end

@@@

$molecule
READ
$end

$rem
     JOBTYPE  freq
     METHOD   bp86
     BASIS    def2-msvp
     MAX_SCF_CYCLES   800
     INPUT_BOHR TRUE
     SYM_IGNORE TRUE
     SCF_GUESS     read 
$end
