$molecule
0   1
 Fe 59.14405346 0.29136426 -6.26888843
C 60.72813516 3.15485696 -5.19256813
C 59.47137418 -0.59509446 -9.56151767
C 61.58515423 -1.81457868 -5.18137545
C 56.63391350 -1.87327172 -5.05087198
C 56.57446385 2.50794180 -6.84000972
O 61.77483707 5.01733315 -4.47351379
O 59.99427216 -1.08540742 -11.56581780
O 63.26765404 -3.02096648 -4.29811576
O 54.99320683 -3.08920740 -4.55546117
O 55.15930003 4.12300995 -7.21115272

$end

$rem
     JOBTYPE  force
     METHOD   bp86
     BASIS    def2-msvp
     MAX_SCF_CYCLES   800
     INPUT_BOHR TRUE
     SYM_IGNORE TRUE
$end

@@@

$molecule
READ
$end

$rem
     JOBTYPE  freq
     METHOD   bp86
     BASIS    def2-msvp
     MAX_SCF_CYCLES   800
     INPUT_BOHR TRUE
     SYM_IGNORE TRUE
     SCF_GUESS     read 
$end
