$molecule
0   1
 Fe -79.18755393 0.60908634 -1.61828011
C -82.04745174 2.36023473 -1.72046313
C -76.35049434 -1.58595203 -1.36435062
C -78.00949211 2.33208022 1.09937547
C -81.09834063 -2.23639420 -1.23685726
C -78.43359286 1.81267086 -4.75523620
O -83.91846772 3.42565600 -2.05835376
O -74.51145119 -2.71834080 -0.77622441
O -77.62278414 3.61399604 2.83096123
O -82.56051006 -3.84439408 -0.59873611
O -77.98123235 2.45315070 -6.81853079

$end

$rem
     JOBTYPE  force
     METHOD   bp86
     BASIS    def2-msvp
     MAX_SCF_CYCLES   800
     INPUT_BOHR TRUE
     SYM_IGNORE TRUE
$end

@@@

$molecule
READ
$end

$rem
     JOBTYPE  freq
     METHOD   bp86
     BASIS    def2-msvp
     MAX_SCF_CYCLES   800
     INPUT_BOHR TRUE
     SYM_IGNORE TRUE
     SCF_GUESS     read 
$end
