$molecule
0   1
 Fe -78.17806998 0.48295268 -1.40583710
C -80.68742006 2.39016740 -0.01674759
C -75.77402210 -1.55301617 -2.76516323
C -76.14146366 1.53410949 1.06864874
C -80.23835809 -2.17126642 -0.80666547
C -78.66788833 2.25709277 -4.29853612
O -82.33546011 3.69943557 0.64454740
O -73.96607355 -2.80958712 -3.10906418
O -74.92429676 2.38704850 2.70056337
O -81.47859101 -3.97384139 -0.43821384
O -78.84546760 3.03395384 -6.34732768

$end

$rem
     JOBTYPE  force
     METHOD   bp86
     BASIS    def2-msvp
     MAX_SCF_CYCLES   800
     INPUT_BOHR TRUE
     SYM_IGNORE TRUE
$end

@@@

$molecule
READ
$end

$rem
     JOBTYPE  freq
     METHOD   bp86
     BASIS    def2-msvp
     MAX_SCF_CYCLES   800
     INPUT_BOHR TRUE
     SYM_IGNORE TRUE
     SCF_GUESS     read 
$end
