$molecule
0   1
 Fe -5.29067068 -5.51905039 2.62161170
C -2.57577849 -3.43348491 2.64174147
C -7.80743882 -7.19617496 4.15783442
C -5.51339360 -6.37793828 -0.74693353
C -3.50701275 -7.46809506 4.64156709
C -7.34800843 -2.73185635 2.89460906
O -0.66770787 -2.41257622 2.83159630
O -9.40707146 -8.02885510 5.35817634
O -5.86807152 -6.49013891 -2.92389106
O -2.19328405 -8.68476085 5.99489323
O -8.63225956 -1.00247853 3.21946858

$end

$rem
     JOBTYPE  force
     METHOD   bp86
     BASIS    def2-msvp
     MAX_SCF_CYCLES   800
     INPUT_BOHR TRUE
     SYM_IGNORE TRUE
$end

@@@

$molecule
READ
$end

$rem
     JOBTYPE  freq
     METHOD   bp86
     BASIS    def2-msvp
     MAX_SCF_CYCLES   800
     INPUT_BOHR TRUE
     SYM_IGNORE TRUE
     SCF_GUESS     read 
$end
