$molecule
0   1
 Fe -93.03789334 0.03758296 -5.83510520
C -90.25337306 -1.41622712 -7.11860909
C -95.69240742 1.69070776 -4.79401742
C -94.38620670 -3.07633198 -5.33444192
C -91.27942292 0.56394026 -2.87395616
C -93.36252682 1.97027089 -8.65296997
O -88.38855668 -2.33377917 -7.77912717
O -97.61432869 2.63114035 -4.40005196
O -95.21459994 -5.16273441 -5.02521895
O -90.30000246 0.72903458 -0.84532988
O -93.83721966 2.73712404 -10.65801013

$end

$rem
     JOBTYPE  force
     METHOD   bp86
     BASIS    def2-msvp
     MAX_SCF_CYCLES   800
     INPUT_BOHR TRUE
     SYM_IGNORE TRUE
$end

@@@

$molecule
READ
$end

$rem
     JOBTYPE  freq
     METHOD   bp86
     BASIS    def2-msvp
     MAX_SCF_CYCLES   800
     INPUT_BOHR TRUE
     SYM_IGNORE TRUE
     SCF_GUESS     read 
$end
