$molecule
0   1
 Fe 24.46518412 -0.85746091 -3.02755580
C 24.52570893 2.26296986 -4.29681278
C 24.35241740 -3.96012695 -1.69874683
C 25.70308285 -2.15833593 -5.86459218
C 26.43702042 0.36298736 -0.39824236
C 21.17946524 -0.34618971 -2.72912456
O 24.44782434 4.33185436 -4.88433654
O 24.56214449 -5.83834511 -0.66568296
O 26.46134673 -3.16749464 -7.66114986
O 27.57454835 1.00673647 1.43530273
O 19.01672889 -0.25847611 -2.96404975

$end

$rem
     JOBTYPE  force
     METHOD   bp86
     BASIS    def2-msvp
     MAX_SCF_CYCLES   800
     INPUT_BOHR TRUE
     SYM_IGNORE TRUE
$end

@@@

$molecule
READ
$end

$rem
     JOBTYPE  freq
     METHOD   bp86
     BASIS    def2-msvp
     MAX_SCF_CYCLES   800
     INPUT_BOHR TRUE
     SYM_IGNORE TRUE
     SCF_GUESS     read 
$end
