$molecule
0   1
 Fe 46.29946463 -0.90860422 0.23565767
C 48.77956209 0.86450988 -1.40427924
C 43.79273803 -2.33760976 2.00724503
C 46.34961726 1.70184192 2.49831025
C 44.35103819 -0.72957512 -2.62986499
C 48.33690945 -3.40082138 0.87203630
O 50.29725780 2.20925760 -2.25697016
O 42.24880479 -3.43738622 3.14365462
O 46.26882243 3.50768491 3.88948797
O 43.23271325 -0.72752035 -4.48925991
O 49.74448363 -5.06435529 1.22023317

$end

$rem
     JOBTYPE  force
     METHOD   bp86
     BASIS    def2-msvp
     MAX_SCF_CYCLES   800
     INPUT_BOHR TRUE
     SYM_IGNORE TRUE
$end

@@@

$molecule
READ
$end

$rem
     JOBTYPE  freq
     METHOD   bp86
     BASIS    def2-msvp
     MAX_SCF_CYCLES   800
     INPUT_BOHR TRUE
     SYM_IGNORE TRUE
     SCF_GUESS     read 
$end
