$molecule
0   1
 Fe 12.08446454 6.10224670 2.50638662
C 11.07263201 7.32853273 5.67466001
C 13.34351621 5.71828026 -0.69297182
C 11.16613691 2.86439931 3.01247229
C 9.23200614 7.65808599 1.34802750
C 15.18742351 7.24282521 3.42062899
O 10.39083962 8.17387768 7.65738844
O 14.59040291 5.93194244 -2.58946497
O 10.67322023 0.76219289 3.23302262
O 7.51115591 8.34516153 0.25994885
O 17.11419190 8.03635899 4.08831788

$end

$rem
     JOBTYPE  force
     METHOD   bp86
     BASIS    def2-msvp
     MAX_SCF_CYCLES   800
     INPUT_BOHR TRUE
     SYM_IGNORE TRUE
$end

@@@

$molecule
READ
$end

$rem
     JOBTYPE  freq
     METHOD   bp86
     BASIS    def2-msvp
     MAX_SCF_CYCLES   800
     INPUT_BOHR TRUE
     SYM_IGNORE TRUE
     SCF_GUESS     read 
$end
