$molecule
0   1
 Fe 33.09616506 2.45204978 8.54736870
C 33.18713117 -0.42669631 6.72745357
C 33.27823633 5.60560185 9.84032606
C 33.54675380 0.96590227 11.65599015
C 35.84210335 3.38063535 6.75922607
C 29.69941727 2.65578105 7.88145795
O 33.32616876 -2.12675717 5.29486635
O 33.18616301 7.74960830 10.37891107
O 33.85950984 -0.02185078 13.61426402
O 37.73704281 3.87901068 5.80308548
O 27.57763874 2.98529897 7.33958795

$end

$rem
     JOBTYPE  force
     METHOD   bp86
     BASIS    def2-msvp
     MAX_SCF_CYCLES   800
     INPUT_BOHR TRUE
     SYM_IGNORE TRUE
$end

@@@

$molecule
READ
$end

$rem
     JOBTYPE  freq
     METHOD   bp86
     BASIS    def2-msvp
     MAX_SCF_CYCLES   800
     INPUT_BOHR TRUE
     SYM_IGNORE TRUE
     SCF_GUESS     read 
$end
