$molecule
0   1
 Fe -57.19080555 -4.21294151 0.33110762
C -56.15346045 -7.52142702 -0.03279778
C -58.14792412 -0.79953037 0.70233844
C -59.52212242 -5.06721415 2.64996636
C -54.22862617 -3.37317912 1.54345921
C -58.29366688 -3.83513947 -2.96022727
O -55.37041984 -9.57904955 -0.29231263
O -58.71916541 1.15370888 1.50581745
O -60.92379030 -5.32694223 4.32226430
O -52.12997944 -3.05820248 2.13370552
O -58.91716681 -3.68919738 -5.03005233

$end

$rem
     JOBTYPE  force
     METHOD   bp86
     BASIS    def2-msvp
     MAX_SCF_CYCLES   800
     INPUT_BOHR TRUE
     SYM_IGNORE TRUE
$end

@@@

$molecule
READ
$end

$rem
     JOBTYPE  freq
     METHOD   bp86
     BASIS    def2-msvp
     MAX_SCF_CYCLES   800
     INPUT_BOHR TRUE
     SYM_IGNORE TRUE
     SCF_GUESS     read 
$end
