$molecule
0   1
 Fe 112.50114122 2.98144189 0.71804378
C 114.21405875 5.37257662 2.52625976
C 111.01067847 0.90893689 -1.63158129
C 112.21849468 5.24886564 -1.79922250
C 114.90438483 0.60883265 1.46920270
C 109.64181537 2.92063455 2.63995756
O 115.44185885 6.93415553 3.59221836
O 110.09207029 -0.30714612 -3.25045480
O 111.59373375 6.75523520 -3.25596852
O 116.45198162 -0.88061278 2.24415195
O 107.68268205 2.84255585 3.59451544

$end

$rem
     JOBTYPE  force
     METHOD   bp86
     BASIS    def2-msvp
     MAX_SCF_CYCLES   800
     INPUT_BOHR TRUE
     SYM_IGNORE TRUE
$end

@@@

$molecule
READ
$end

$rem
     JOBTYPE  freq
     METHOD   bp86
     BASIS    def2-msvp
     MAX_SCF_CYCLES   800
     INPUT_BOHR TRUE
     SYM_IGNORE TRUE
     SCF_GUESS     read 
$end
