$molecule
0   1
 Fe 12.53301917 5.62755303 2.51305294
C 9.59500124 6.20102600 4.42871058
C 12.92876485 4.33814042 -0.57134599
C 12.30316165 2.56920924 3.57118678
C 12.34319252 8.65888714 1.08715902
C 15.17003893 6.60147554 4.36501464
O 7.57036898 6.43797490 5.50166465
O 13.27921560 3.39211264 -2.59307444
O 11.81954916 0.42019720 4.37344411
O 11.87569370 10.49656100 0.13013657
O 16.92091975 7.22833579 5.45112189

$end

$rem
     JOBTYPE  force
     METHOD   bp86
     BASIS    def2-msvp
     MAX_SCF_CYCLES   800
     INPUT_BOHR TRUE
     SYM_IGNORE TRUE
$end

@@@

$molecule
READ
$end

$rem
     JOBTYPE  freq
     METHOD   bp86
     BASIS    def2-msvp
     MAX_SCF_CYCLES   800
     INPUT_BOHR TRUE
     SYM_IGNORE TRUE
     SCF_GUESS     read 
$end
