$molecule
0   1
 Fe 111.40817990 3.44509513 1.39803975
C 113.84630157 5.81518642 1.77742419
C 108.78198952 1.32187143 0.73821460
C 109.76601915 5.58994794 -0.54396161
C 113.88388535 1.17118361 0.43570420
C 110.46618114 3.68871756 4.64203386
O 115.46595298 7.36980004 2.13588670
O 107.16511389 0.02438872 0.27211385
O 108.32086990 6.83382754 -1.79846359
O 115.34021437 -0.46071166 0.08926906
O 109.29816245 3.87272526 6.57674999

$end

$rem
     JOBTYPE  force
     METHOD   bp86
     BASIS    def2-msvp
     MAX_SCF_CYCLES   800
     INPUT_BOHR TRUE
     SYM_IGNORE TRUE
$end

@@@

$molecule
READ
$end

$rem
     JOBTYPE  freq
     METHOD   bp86
     BASIS    def2-msvp
     MAX_SCF_CYCLES   800
     INPUT_BOHR TRUE
     SYM_IGNORE TRUE
     SCF_GUESS     read 
$end
