$molecule
0   1
 Fe -10.10753379 12.07807590 4.71078694
C -9.28669350 15.31631701 4.55193926
C -10.56650553 8.75746286 4.43917738
C -7.41641060 11.76434956 2.68393688
C -10.01240294 12.00628467 8.19677685
C -12.92758530 12.88971053 2.98890410
O -8.82199091 17.36271088 4.14830493
O -11.13083890 6.62406275 4.37031459
O -5.70800729 11.68766145 1.31120343
O -9.69418539 12.21865938 10.32945705
O -14.53476505 13.46147689 1.64239961

$end

$rem
     JOBTYPE  force
     METHOD   bp86
     BASIS    def2-msvp
     MAX_SCF_CYCLES   800
     INPUT_BOHR TRUE
     SYM_IGNORE TRUE
$end

@@@

$molecule
READ
$end

$rem
     JOBTYPE  freq
     METHOD   bp86
     BASIS    def2-msvp
     MAX_SCF_CYCLES   800
     INPUT_BOHR TRUE
     SYM_IGNORE TRUE
     SCF_GUESS     read 
$end
