$molecule
0   1
 Fe -4.28575922 -6.72382084 3.51270273
C -2.23268442 -4.13867802 2.63445281
C -5.51515858 -9.68336653 4.49423572
C -5.20085127 -6.93629394 0.21209071
C -2.16689047 -7.44984444 6.08185150
C -6.81644295 -4.86640336 4.74194750
O -0.70542578 -2.55860925 2.02338299
O -6.27255109 -11.65196939 5.02875251
O -5.87418765 -7.06902508 -1.86598889
O -0.99580230 -7.81694422 7.96943180
O -8.56166967 -3.62339357 5.30550231

$end

$rem
     JOBTYPE  force
     METHOD   bp86
     BASIS    def2-msvp
     MAX_SCF_CYCLES   800
     INPUT_BOHR TRUE
     SYM_IGNORE TRUE
$end

@@@

$molecule
READ
$end

$rem
     JOBTYPE  freq
     METHOD   bp86
     BASIS    def2-msvp
     MAX_SCF_CYCLES   800
     INPUT_BOHR TRUE
     SYM_IGNORE TRUE
     SCF_GUESS     read 
$end
