$molecule
0   1
 Fe -4.76563534 -6.07366923 3.17548681
C -2.49529120 -3.70173853 2.25448147
C -7.37584273 -8.22282592 4.45031382
C -4.87269310 -7.27709954 -0.15017133
C -2.35045606 -7.73156553 5.05608939
C -6.81891517 -3.74691660 4.35160396
O -1.16975994 -1.87761291 1.92945128
O -8.92109804 -9.56818837 5.50129133
O -4.90735628 -7.53582601 -2.29573308
O -0.64825629 -8.64962673 6.15524538
O -8.37600412 -2.50180874 5.31532504

$end

$rem
     JOBTYPE  force
     METHOD   bp86
     BASIS    def2-msvp
     MAX_SCF_CYCLES   800
     INPUT_BOHR TRUE
     SYM_IGNORE TRUE
$end

@@@

$molecule
READ
$end

$rem
     JOBTYPE  freq
     METHOD   bp86
     BASIS    def2-msvp
     MAX_SCF_CYCLES   800
     INPUT_BOHR TRUE
     SYM_IGNORE TRUE
     SCF_GUESS     read 
$end
