$molecule
0   1
 Fe 0.37264415 -5.80815716 -5.20153543
C -2.98592598 -5.00642732 -5.25344234
C 3.76434280 -6.52208466 -5.41323377
C 0.68519005 -6.14119663 -1.86410571
C -0.39011261 -8.56747210 -7.17712167
C 1.22867863 -2.43374309 -5.76579898
O -4.99616949 -4.35750536 -5.40758500
O 5.94347153 -6.87377203 -5.37049257
O 1.63304319 -6.15271718 0.16878355
O -0.70764987 -10.38202226 -8.34827002
O 1.74101527 -0.27730240 -6.11384762

$end

$rem
     JOBTYPE  force
     METHOD   bp86
     BASIS    def2-msvp
     MAX_SCF_CYCLES   800
     INPUT_BOHR TRUE
     SYM_IGNORE TRUE
$end

@@@

$molecule
READ
$end

$rem
     JOBTYPE  freq
     METHOD   bp86
     BASIS    def2-msvp
     MAX_SCF_CYCLES   800
     INPUT_BOHR TRUE
     SYM_IGNORE TRUE
     SCF_GUESS     read 
$end
