$molecule
0   1
 Fe 24.33757330 -0.99504783 -3.38475240
C 24.50828419 1.60451212 -5.48343048
C 24.35502810 -4.03411682 -1.57693020
C 24.52929826 -3.36840772 -5.87141064
C 26.67269849 0.59173259 -1.32193226
C 21.33854775 0.38919976 -2.23215849
O 24.59561785 3.55486562 -6.61389316
O 24.20639044 -5.71162681 -0.23171807
O 24.88497431 -4.79400266 -7.47901404
O 27.98786906 1.66811809 0.17576083
O 19.41377111 1.34499174 -1.91549325

$end

$rem
     JOBTYPE  force
     METHOD   bp86
     BASIS    def2-msvp
     MAX_SCF_CYCLES   800
     INPUT_BOHR TRUE
     SYM_IGNORE TRUE
$end

@@@

$molecule
READ
$end

$rem
     JOBTYPE  freq
     METHOD   bp86
     BASIS    def2-msvp
     MAX_SCF_CYCLES   800
     INPUT_BOHR TRUE
     SYM_IGNORE TRUE
     SCF_GUESS     read 
$end
