$molecule
0   1
 Fe -25.47428152 1.65981304 -15.85041733
C -23.23099689 1.64433589 -13.22740092
C -27.41191217 1.47030375 -18.68033836
C -23.06239200 0.30269651 -17.78278901
C -27.73794175 -0.65591984 -14.47127927
C -25.58110971 4.96009961 -15.34326689
O -21.76318530 1.82050723 -11.63581369
O -28.59954684 1.38357153 -20.53667690
O -21.33758319 -0.77745000 -18.56285172
O -28.85248569 -2.49324824 -13.90059493
O -25.31183808 7.13567098 -15.08655553

$end

$rem
     JOBTYPE  force
     METHOD   bp86
     BASIS    def2-msvp
     MAX_SCF_CYCLES   800
     INPUT_BOHR TRUE
     SYM_IGNORE TRUE
$end

@@@

$molecule
READ
$end

$rem
     JOBTYPE  freq
     METHOD   bp86
     BASIS    def2-msvp
     MAX_SCF_CYCLES   800
     INPUT_BOHR TRUE
     SYM_IGNORE TRUE
     SCF_GUESS     read 
$end
