$molecule
0   1
 Fe -79.94554694 0.67567590 -1.69396735
C -82.77470362 1.75781368 -3.02585773
C -77.02446687 -0.49096634 -0.06009562
C -80.20598202 3.24721339 0.57136246
C -81.51135185 -2.31885143 -1.17694862
C -78.28608314 1.20798950 -4.67811377
O -84.59415616 2.32644670 -4.12044516
O -75.15039450 -1.26492656 0.87792901
O -80.99947416 5.01979767 1.60053018
O -82.56305920 -4.15556982 -0.64171454
O -77.14373055 1.20469856 -6.54752710

$end

$rem
     JOBTYPE  force
     METHOD   bp86
     BASIS    def2-msvp
     MAX_SCF_CYCLES   800
     INPUT_BOHR TRUE
     SYM_IGNORE TRUE
$end

@@@

$molecule
READ
$end

$rem
     JOBTYPE  freq
     METHOD   bp86
     BASIS    def2-msvp
     MAX_SCF_CYCLES   800
     INPUT_BOHR TRUE
     SYM_IGNORE TRUE
     SCF_GUESS     read 
$end
