$molecule
0   1
 Fe 33.04915673 2.99608651 9.41054021
C 33.09655630 0.32365072 7.43347380
C 32.79746461 5.24260112 12.04869059
C 34.36141081 0.97853040 11.85592762
C 35.14231787 4.85600113 7.70739795
C 29.91688256 3.51342507 8.41162944
O 33.29450039 -1.47894816 6.11822469
O 32.33491701 6.59414292 13.66518854
O 35.11976862 -0.31360576 13.52269540
O 36.53618975 6.06676447 6.56077551
O 27.88166390 3.94748260 7.60900283

$end

$rem
     JOBTYPE  force
     METHOD   bp86
     BASIS    def2-msvp
     MAX_SCF_CYCLES   800
     INPUT_BOHR TRUE
     SYM_IGNORE TRUE
$end

@@@

$molecule
READ
$end

$rem
     JOBTYPE  freq
     METHOD   bp86
     BASIS    def2-msvp
     MAX_SCF_CYCLES   800
     INPUT_BOHR TRUE
     SYM_IGNORE TRUE
     SCF_GUESS     read 
$end
