$molecule
0   1
 Fe 0.42653105 -5.34418111 -4.49332428
C -2.01439769 -3.07646142 -4.81232342
C 3.23394006 -6.91621851 -3.22902833
C -0.82350122 -6.62388274 -1.64368039
C -0.20671290 -7.25878399 -7.28015061
C 2.50632173 -2.90241183 -5.47159075
O -3.72606449 -1.73208726 -4.79386254
O 5.05307703 -7.91906626 -2.57815764
O -1.33602415 -7.21116790 0.50702817
O -0.39905380 -8.70476657 -9.02446157
O 4.02560103 -1.41927093 -6.26540848

$end

$rem
     JOBTYPE  force
     METHOD   bp86
     BASIS    def2-msvp
     MAX_SCF_CYCLES   800
     INPUT_BOHR TRUE
     SYM_IGNORE TRUE
$end

@@@

$molecule
READ
$end

$rem
     JOBTYPE  freq
     METHOD   bp86
     BASIS    def2-msvp
     MAX_SCF_CYCLES   800
     INPUT_BOHR TRUE
     SYM_IGNORE TRUE
     SCF_GUESS     read 
$end
