$molecule
0   1
 Fe 95.33471503 1.68180569 -0.65788655
C 97.90260917 3.78433293 -0.14952559
C 92.80730055 -0.41891845 -1.54255425
C 93.45551551 3.32588984 1.85554558
C 95.47607548 2.75995161 -3.75292782
C 97.74342147 -0.67386939 -0.10752202
O 99.36783760 5.24254450 0.36249419
O 91.09464405 -1.76377052 -1.95266634
O 92.64433335 4.71277300 3.44992243
O 96.07073444 3.12579380 -5.85514092
O 99.41051203 -2.06863371 0.34018291

$end

$rem
     JOBTYPE  force
     METHOD   bp86
     BASIS    def2-msvp
     MAX_SCF_CYCLES   800
     INPUT_BOHR TRUE
     SYM_IGNORE TRUE
$end

@@@

$molecule
READ
$end

$rem
     JOBTYPE  freq
     METHOD   bp86
     BASIS    def2-msvp
     MAX_SCF_CYCLES   800
     INPUT_BOHR TRUE
     SYM_IGNORE TRUE
     SCF_GUESS     read 
$end
