$molecule
0   1
 Fe 55.04239804 -2.44566296 17.36655392
C 51.92291537 -3.90664290 17.03442050
C 58.27221936 -1.34834684 17.52661310
C 56.08454103 -4.84321478 15.07448926
C 53.49831720 0.44715454 16.64116313
C 55.26955346 -3.19723103 20.72272212
O 49.94506266 -4.88283131 16.90613215
O 60.38290007 -0.79883317 17.53446041
O 56.85121012 -6.28806605 13.57991389
O 52.27276446 2.24057573 16.33643498
O 55.33715912 -3.68398456 22.87827728

$end

$rem
     JOBTYPE  force
     METHOD   bp86
     BASIS    def2-msvp
     MAX_SCF_CYCLES   800
     INPUT_BOHR TRUE
     SYM_IGNORE TRUE
$end

@@@

$molecule
READ
$end

$rem
     JOBTYPE  freq
     METHOD   bp86
     BASIS    def2-msvp
     MAX_SCF_CYCLES   800
     INPUT_BOHR TRUE
     SYM_IGNORE TRUE
     SCF_GUESS     read 
$end
