$molecule
0   1
 Fe 111.89399092 3.25496218 1.05548856
C 113.50830902 5.60204350 2.77368039
C 110.01212551 1.05019248 -0.62567532
C 111.12912645 5.62384168 -1.31315250
C 114.59367841 1.26238086 1.00081177
C 109.65018007 3.00467070 3.69659622
O 114.63711402 7.08049562 4.04035727
O 108.55745795 -0.27881616 -1.55018433
O 110.63857324 6.90992623 -3.00073469
O 116.59828454 0.01375708 0.95391061
O 107.76488045 2.77786037 4.90585341

$end

$rem
     JOBTYPE  force
     METHOD   bp86
     BASIS    def2-msvp
     MAX_SCF_CYCLES   800
     INPUT_BOHR TRUE
     SYM_IGNORE TRUE
$end

@@@

$molecule
READ
$end

$rem
     JOBTYPE  freq
     METHOD   bp86
     BASIS    def2-msvp
     MAX_SCF_CYCLES   800
     INPUT_BOHR TRUE
     SYM_IGNORE TRUE
     SCF_GUESS     read 
$end
