$molecule
0   1
 Fe 32.98136691 3.29703379 10.24721198
C 33.56942790 1.48072429 7.37021659
C 32.20919606 5.71741091 12.63876190
C 34.75635697 1.11190451 12.36825164
C 34.69440976 5.78590898 8.70290018
C 29.58231563 2.77132601 9.94839903
O 33.98844018 0.43658242 5.48213233
O 32.03803952 7.24753481 14.23059812
O 35.83854881 -0.19447102 13.79826090
O 35.85736723 7.49360221 7.83687921
O 27.43020329 2.34506049 9.68885026

$end

$rem
     JOBTYPE  force
     METHOD   bp86
     BASIS    def2-msvp
     MAX_SCF_CYCLES   800
     INPUT_BOHR TRUE
     SYM_IGNORE TRUE
$end

@@@

$molecule
READ
$end

$rem
     JOBTYPE  freq
     METHOD   bp86
     BASIS    def2-msvp
     MAX_SCF_CYCLES   800
     INPUT_BOHR TRUE
     SYM_IGNORE TRUE
     SCF_GUESS     read 
$end
