$molecule
0   1
 Fe 94.65616055 1.52287269 -0.70090670
C 95.70693923 4.78517262 0.12638496
C 94.06736268 -1.64830573 -1.98837974
C 91.75241640 1.89582637 1.11301571
C 94.71049638 2.50271369 -3.85459357
C 97.81409930 0.53712768 0.38490738
O 96.72688707 6.51653486 0.97163775
O 93.67367149 -3.71247212 -2.65287550
O 90.03951741 2.14561172 2.58611141
O 94.51570681 3.41655293 -5.84193151
O 99.93136272 0.39438600 0.87507558

$end

$rem
     JOBTYPE  force
     METHOD   bp86
     BASIS    def2-msvp
     MAX_SCF_CYCLES   800
     INPUT_BOHR TRUE
     SYM_IGNORE TRUE
$end

@@@

$molecule
READ
$end

$rem
     JOBTYPE  freq
     METHOD   bp86
     BASIS    def2-msvp
     MAX_SCF_CYCLES   800
     INPUT_BOHR TRUE
     SYM_IGNORE TRUE
     SCF_GUESS     read 
$end
