$molecule
0   1
Fe 33.63700006 -1.50073579 1.35488578
C 30.78967570 -0.42456647 -0.09223487
C 36.43604585 -2.21560689 3.04118183
C 31.95208244 -2.40492451 4.08731210
C 34.26808884 -3.75305810 -1.13235823
C 34.74468569 1.71596635 1.21694320
O 28.79205505 0.22276877 -0.79623275
O 38.01422896 -2.94950581 4.31846169
O 31.05296908 -3.32921329 5.83353627
O 34.84012055 -4.76397531 -2.95861522
O 35.47664291 3.73863473 0.90514033

$end

$rem
     JOBTYPE  force
     METHOD   bp86
     BASIS    def2-msvp
     MAX_SCF_CYCLES   800
     INPUT_BOHR TRUE
     SYM_IGNORE TRUE
$end
