$molecule
0   1
 Fe -92.44306355 -0.06083334 -7.39989525
C -89.44042841 -1.64363056 -6.78971430
C -95.38597291 1.59025955 -6.68338608
C -93.69380807 -2.61471640 -5.60093755
C -90.86613028 2.86787801 -7.55366339
C -93.18298160 -1.02400473 -10.59558048
O -87.50349185 -2.55711908 -6.05281424
O -97.36149264 2.49356838 -6.14367940
O -94.16415274 -4.25839073 -4.35179842
O -89.76955085 4.85952516 -7.69124742
O -93.60814244 -1.95854158 -12.52549334

$end

$rem
     JOBTYPE  force
     METHOD   bp86
     BASIS    def2-msvp
     MAX_SCF_CYCLES   800
     INPUT_BOHR TRUE
     SYM_IGNORE TRUE
$end

@@@

$molecule
READ
$end

$rem
     JOBTYPE  freq
     METHOD   bp86
     BASIS    def2-msvp
     MAX_SCF_CYCLES   800
     INPUT_BOHR TRUE
     SYM_IGNORE TRUE
     SCF_GUESS     read 
$end
