$molecule
0   1
 Fe 24.72353446 -0.62241621 -2.65375801
C 24.49518448 2.67619848 -2.86786305
C 25.08607100 -4.14352991 -2.33767171
C 26.37224137 -1.00363155 -5.66400633
C 25.98282862 -0.37006003 0.62721362
C 21.34135692 -0.65141099 -2.80676380
O 24.38540410 4.89810195 -2.95078529
O 25.41763031 -6.30281780 -2.33877081
O 27.77334788 -1.24858558 -7.34888260
O 26.19902148 -0.22412643 2.77974872
O 19.18099695 -0.56870562 -2.98647059

$end

$rem
     JOBTYPE  force
     METHOD   bp86
     BASIS    def2-msvp
     MAX_SCF_CYCLES   800
     INPUT_BOHR TRUE
     SYM_IGNORE TRUE
$end

@@@

$molecule
READ
$end

$rem
     JOBTYPE  freq
     METHOD   bp86
     BASIS    def2-msvp
     MAX_SCF_CYCLES   800
     INPUT_BOHR TRUE
     SYM_IGNORE TRUE
     SCF_GUESS     read 
$end
