$molecule
0   1
 Fe 12.87705750 4.84394926 2.75342771
C 11.20402151 7.17699066 4.38951417
C 15.58693866 3.81596057 0.63422613
C 11.01577245 2.08244282 3.21500514
C 11.63415924 6.08826917 -0.22000513
C 15.14082443 5.27106421 5.18811358
O 10.08031357 8.80918729 5.25436260
O 17.22682691 3.33787760 -0.75208428
O 9.69555765 0.32993575 3.12594853
O 10.68946348 6.66271084 -2.11145179
O 16.62905611 6.03966114 6.68095297

$end

$rem
     JOBTYPE  force
     METHOD   bp86
     BASIS    def2-msvp
     MAX_SCF_CYCLES   800
     INPUT_BOHR TRUE
     SYM_IGNORE TRUE
$end

@@@

$molecule
READ
$end

$rem
     JOBTYPE  freq
     METHOD   bp86
     BASIS    def2-msvp
     MAX_SCF_CYCLES   800
     INPUT_BOHR TRUE
     SYM_IGNORE TRUE
     SCF_GUESS     read 
$end
