$molecule
0   1
 Fe 46.88978351 -1.31174999 0.35641782
C 49.46157203 1.01439266 0.48706392
C 44.30480812 -3.48723297 0.40889387
C 45.11056105 0.60714573 2.58868966
C 46.65833857 -0.97211613 -3.04643341
C 48.81958099 -3.96459069 1.62505387
O 51.09718837 2.65460262 0.58372288
O 42.51083864 -4.78681393 0.54571134
O 43.84769780 1.82615866 3.90436067
O 46.37851344 -0.80992875 -5.19749877
O 49.97826699 -5.57235410 2.61269157

$end

$rem
     JOBTYPE  force
     METHOD   bp86
     BASIS    def2-msvp
     MAX_SCF_CYCLES   800
     INPUT_BOHR TRUE
     SYM_IGNORE TRUE
$end

@@@

$molecule
READ
$end

$rem
     JOBTYPE  freq
     METHOD   bp86
     BASIS    def2-msvp
     MAX_SCF_CYCLES   800
     INPUT_BOHR TRUE
     SYM_IGNORE TRUE
     SCF_GUESS     read 
$end
