$molecule
0   1
 Fe -24.70884604 2.12879373 -19.40709566
C -22.59426950 3.37188415 -16.79867994
C -26.56560953 1.00823657 -22.05199965
C -21.90795255 1.39058040 -20.92854687
C -25.71826753 -0.67438382 -17.68843805
C -25.65589670 5.29270102 -19.53348342
O -21.29454770 3.95833592 -15.09810491
O -27.65269292 -0.10599426 -23.59302028
O -19.85331193 0.86604398 -21.63526176
O -26.50345549 -2.42471278 -16.65775401
O -25.90192338 7.54366445 -19.74183864

$end

$rem
     JOBTYPE  force
     METHOD   bp86
     BASIS    def2-msvp
     MAX_SCF_CYCLES   800
     INPUT_BOHR TRUE
     SYM_IGNORE TRUE
$end

@@@

$molecule
READ
$end

$rem
     JOBTYPE  freq
     METHOD   bp86
     BASIS    def2-msvp
     MAX_SCF_CYCLES   800
     INPUT_BOHR TRUE
     SYM_IGNORE TRUE
     SCF_GUESS     read 
$end
