$molecule
0   1
 Fe 46.71188173 -1.10562152 0.15711261
C 49.51093634 0.94509230 -0.25285364
C 43.97503567 -2.94853232 1.09467424
C 45.61306628 1.22064891 2.48724885
C 45.53436250 -0.90211917 -2.99360341
C 48.45546127 -3.66708680 1.22517176
O 51.32596764 2.17644284 -0.30983812
O 42.34575133 -4.22922324 1.67463111
O 44.79395378 2.53293091 4.07173033
O 44.56384675 -0.64456579 -4.99087657
O 49.60030359 -5.34586241 2.23022201

$end

$rem
     JOBTYPE  force
     METHOD   bp86
     BASIS    def2-msvp
     MAX_SCF_CYCLES   800
     INPUT_BOHR TRUE
     SYM_IGNORE TRUE
$end

@@@

$molecule
READ
$end

$rem
     JOBTYPE  freq
     METHOD   bp86
     BASIS    def2-msvp
     MAX_SCF_CYCLES   800
     INPUT_BOHR TRUE
     SYM_IGNORE TRUE
     SCF_GUESS     read 
$end
