$molecule
0   1
 Fe 55.13724758 -2.82122576 19.53105604
C 52.14162030 -4.25142715 19.12636094
C 58.16828716 -1.50629837 20.24972665
C 56.53243880 -4.84785712 17.14148829
C 53.79321725 0.14458357 18.77116540
C 55.41934052 -4.17979370 22.62157234
O 50.15579867 -5.14722934 18.85942187
O 60.16939242 -0.82506618 20.70558358
O 57.48166027 -6.23505868 15.72623076
O 52.48703106 1.92050555 18.44977982
O 55.49894622 -5.03032704 24.64384377

$end

$rem
     JOBTYPE  force
     METHOD   bp86
     BASIS    def2-msvp
     MAX_SCF_CYCLES   800
     INPUT_BOHR TRUE
     SYM_IGNORE TRUE
$end

@@@

$molecule
READ
$end

$rem
     JOBTYPE  freq
     METHOD   bp86
     BASIS    def2-msvp
     MAX_SCF_CYCLES   800
     INPUT_BOHR TRUE
     SYM_IGNORE TRUE
     SCF_GUESS     read 
$end
