$molecule
0   1
 Fe -56.47931310 -5.24144014 0.47260640
C -53.45607782 -6.95359460 1.08043871
C -59.26429927 -3.36783933 0.67089353
C -58.43585310 -7.69838024 1.92466603
C -54.92867061 -2.72138643 2.23360612
C -55.89124201 -5.20890332 -2.90447546
O -51.79848890 -8.31799217 1.66398903
O -61.13576833 -2.22620616 0.70746820
O -59.71204614 -9.04484126 3.03035808
O -54.00258083 -1.03118698 3.43953407
O -55.68676439 -4.49168208 -4.96287703

$end

$rem
     JOBTYPE  force
     METHOD   bp86
     BASIS    def2-msvp
     MAX_SCF_CYCLES   800
     INPUT_BOHR TRUE
     SYM_IGNORE TRUE
$end

@@@

$molecule
READ
$end

$rem
     JOBTYPE  freq
     METHOD   bp86
     BASIS    def2-msvp
     MAX_SCF_CYCLES   800
     INPUT_BOHR TRUE
     SYM_IGNORE TRUE
     SCF_GUESS     read 
$end
