$molecule
0   1
 Fe 116.15408535 -6.65047347 1.70168040
C 115.59461106 -3.34818642 2.31927039
C 119.41619078 -7.01554306 0.91055728
C 113.96135952 -9.28767310 1.43927306
C 115.15627396 -5.95543931 -1.56331347
C 116.36961730 -7.44240962 4.92130305
O 115.23905181 -1.17447973 2.59642626
O 121.57178422 -7.34011483 0.32370534
O 112.47789798 -10.82015241 1.20394192
O 114.09400886 -5.83217819 -3.48535284
O 116.67481758 -7.91824011 7.06955721

$end

$rem
     JOBTYPE  force
     METHOD   bp86
     BASIS    def2-msvp
     MAX_SCF_CYCLES   800
     INPUT_BOHR TRUE
     SYM_IGNORE TRUE
$end

@@@

$molecule
READ
$end

$rem
     JOBTYPE  freq
     METHOD   bp86
     BASIS    def2-msvp
     MAX_SCF_CYCLES   800
     INPUT_BOHR TRUE
     SYM_IGNORE TRUE
     SCF_GUESS     read 
$end
