$molecule
0   1
 Fe -25.00997489 1.91732537 -17.90136760
C -22.70470502 1.68846485 -15.42103404
C -26.74329055 0.19310346 -20.22189037
C -22.17086553 1.90138077 -19.93796648
C -27.09708495 0.10795350 -15.75735867
C -25.58183993 5.38957192 -18.03374586
O -21.37261747 1.82287988 -13.51572736
O -28.14854120 -0.91153256 -21.52679871
O -20.38417922 1.60848742 -21.08687268
O -28.34030258 -1.39044355 -14.66978596
O -25.32103914 7.43149363 -18.05913175

$end

$rem
     JOBTYPE  force
     METHOD   bp86
     BASIS    def2-msvp
     MAX_SCF_CYCLES   800
     INPUT_BOHR TRUE
     SYM_IGNORE TRUE
$end

@@@

$molecule
READ
$end

$rem
     JOBTYPE  freq
     METHOD   bp86
     BASIS    def2-msvp
     MAX_SCF_CYCLES   800
     INPUT_BOHR TRUE
     SYM_IGNORE TRUE
     SCF_GUESS     read 
$end
