$molecule
0   1
 Fe 59.67234923 0.22145786 -5.70194712
C 60.61415332 2.50079443 -3.45403487
C 57.79294790 -1.37125639 -8.16925666
C 62.28483644 -1.93360486 -5.54922905
C 57.30761226 -0.39921347 -3.27973982
C 60.45945332 2.68703752 -8.00234408
O 61.17531393 3.78675720 -1.76941350
O 56.87205422 -2.42921526 -9.91938243
O 64.20330013 -3.10891534 -5.30313384
O 55.63208389 -0.82882624 -1.93052421
O 61.38343501 4.33252569 -9.27356492

$end

$rem
     JOBTYPE  force
     METHOD   bp86
     BASIS    def2-msvp
     MAX_SCF_CYCLES   800
     INPUT_BOHR TRUE
     SYM_IGNORE TRUE
$end

@@@

$molecule
READ
$end

$rem
     JOBTYPE  freq
     METHOD   bp86
     BASIS    def2-msvp
     MAX_SCF_CYCLES   800
     INPUT_BOHR TRUE
     SYM_IGNORE TRUE
     SCF_GUESS     read 
$end
