$molecule
0   1
 Fe 115.23670845 -5.52302701 1.33715407
C 112.90968786 -4.37028421 3.57807540
C 117.96056347 -6.20491494 -0.49467476
C 112.97557298 -6.82588049 -0.92954471
C 115.40438846 -2.32421630 0.30891946
C 116.36566626 -7.77581471 3.72479086
O 111.67618277 -3.41604409 5.15149372
O 119.64002506 -6.70199348 -1.81665531
O 111.39049631 -7.59470922 -2.11011868
O 115.34050749 -0.28239821 -0.61369250
O 116.86075850 -9.22081586 5.33691449

$end

$rem
     JOBTYPE  force
     METHOD   bp86
     BASIS    def2-msvp
     MAX_SCF_CYCLES   800
     INPUT_BOHR TRUE
     SYM_IGNORE TRUE
$end

@@@

$molecule
READ
$end

$rem
     JOBTYPE  freq
     METHOD   bp86
     BASIS    def2-msvp
     MAX_SCF_CYCLES   800
     INPUT_BOHR TRUE
     SYM_IGNORE TRUE
     SCF_GUESS     read 
$end
