$molecule
0   1
 Fe -92.76989904 -0.11175349 -6.73221604
C -89.48192964 -0.08393488 -7.83784156
C -94.81627969 2.59203837 -6.95305338
C -94.38201418 -2.76736859 -5.19254758
C -91.47686507 0.57230804 -3.60178668
C -93.37300545 -0.98309491 -9.98784265
O -87.32910518 -0.12572690 -8.25218819
O -96.16460104 4.31919589 -7.22252401
O -95.53047618 -4.26197654 -4.01839648
O -90.68806760 0.94530287 -1.58601919
O -93.91022546 -1.88771273 -11.95976947

$end

$rem
     JOBTYPE  force
     METHOD   bp86
     BASIS    def2-msvp
     MAX_SCF_CYCLES   800
     INPUT_BOHR TRUE
     SYM_IGNORE TRUE
$end

@@@

$molecule
READ
$end

$rem
     JOBTYPE  freq
     METHOD   bp86
     BASIS    def2-msvp
     MAX_SCF_CYCLES   800
     INPUT_BOHR TRUE
     SYM_IGNORE TRUE
     SCF_GUESS     read 
$end
